(set-logic QF_S)
(declare-fun var0 () String)
(assert (RegexIn var0 (RegexConcat (RegexPlus (RegexStar (Str2Reg "0"))) (RegexConcat (RegexPlus (RegexStar (Str2Reg "11"))) (RegexConcat (RegexPlus (RegexUnion (Str2Reg "222") (Str2Reg "3"))) (RegexConcat (RegexPlus (RegexStar (Str2Reg "44"))) (RegexConcat (RegexPlus (RegexStar (Str2Reg "5"))) (RegexConcat (RegexPlus (RegexStar (Str2Reg "66"))) (RegexConcat (RegexStar (RegexUnion (Str2Reg "7") (Str2Reg "8"))) (RegexConcat (RegexUnion (RegexStar (Str2Reg "999")) (RegexStar (Str2Reg "aa"))) (RegexConcat (RegexPlus (RegexPlus (Str2Reg "bbb"))) (RegexConcat (RegexStar (RegexPlus (Str2Reg "cc"))) (RegexConcat (RegexPlus (RegexStar (Str2Reg "ddd"))) (RegexConcat (RegexPlus (RegexPlus (Str2Reg "eee"))) (RegexConcat (RegexPlus (RegexPlus (Str2Reg "fff"))) (RegexConcat (RegexPlus (RegexStar (Str2Reg "ggg"))) (RegexConcat (RegexPlus (RegexUnion (Str2Reg "h") (Str2Reg "iii"))) (RegexConcat (RegexUnion (RegexStar (Str2Reg "jj")) (RegexStar (Str2Reg "k"))) (RegexConcat (RegexPlus (RegexPlus (Str2Reg "ll"))) (RegexConcat (RegexUnion (RegexStar (Str2Reg "m")) (RegexStar (Str2Reg "nnn"))) (RegexConcat (RegexStar (RegexPlus (Str2Reg "oo"))) (RegexConcat (RegexStar (RegexUnion (Str2Reg "pp") (Str2Reg "qqq"))) (RegexConcat (RegexUnion (RegexUnion (Str2Reg "rrr") (Str2Reg "s")) (RegexUnion (Str2Reg "t") (Str2Reg "uu"))) (RegexConcat (RegexStar (RegexPlus (Str2Reg "vv"))) (RegexConcat (RegexPlus (RegexPlus (Str2Reg "www"))) (RegexConcat (RegexStar (RegexStar (Str2Reg "xx"))) (RegexConcat (RegexPlus (RegexStar (Str2Reg "yy"))) (RegexConcat (RegexUnion (RegexStar (Str2Reg "zz")) (RegexStar (Str2Reg "AA"))) (RegexConcat (RegexUnion (RegexStar (Str2Reg "B")) (RegexStar (Str2Reg "CCC"))) (RegexConcat (RegexUnion (RegexStar (Str2Reg "DD")) (RegexStar (Str2Reg "EEE"))) (RegexConcat (RegexUnion (RegexPlus (Str2Reg "FF")) (RegexPlus (Str2Reg "GG"))) (RegexConcat (RegexUnion (RegexPlus (Str2Reg "H")) (RegexPlus (Str2Reg "I"))) (RegexConcat (RegexPlus (RegexStar (Str2Reg "J"))) (RegexConcat (RegexUnion (RegexUnion (Str2Reg "KKK") (Str2Reg "LLL")) (RegexUnion (Str2Reg "MM") (Str2Reg "N"))) (RegexConcat (RegexUnion (RegexStar (Str2Reg "OO")) (RegexStar (Str2Reg "PP"))) (RegexConcat (RegexUnion (RegexUnion (Str2Reg "Q") (Str2Reg "RR")) (RegexUnion (Str2Reg "SSS") (Str2Reg "TT"))) (RegexConcat (RegexPlus (RegexStar (Str2Reg "U"))) (RegexConcat (RegexUnion (RegexUnion (Str2Reg "VV") (Str2Reg "WW")) (RegexUnion (Str2Reg "XX") (Str2Reg "YY"))) (RegexConcat (RegexUnion (RegexUnion (Str2Reg "Z") (Str2Reg "!!")) (RegexUnion (Str2Reg "\"") (Str2Reg "###"))) (RegexConcat (RegexPlus (RegexPlus (Str2Reg "$$"))) (RegexConcat (RegexPlus (RegexPlus (Str2Reg "%%"))) (RegexConcat (RegexStar (RegexPlus (Str2Reg "&"))) (RegexConcat (RegexPlus (RegexPlus (Str2Reg "'''"))) (RegexConcat (RegexPlus (RegexStar (Str2Reg "("))) (RegexConcat (RegexPlus (RegexUnion (Str2Reg "))") (Str2Reg "***"))) (RegexConcat (RegexStar (RegexStar (Str2Reg "+"))) (RegexConcat (RegexPlus (RegexUnion (Str2Reg ",,") (Str2Reg "-"))) (RegexConcat (RegexStar (RegexUnion (Str2Reg "..") (Str2Reg "/"))) (RegexConcat (RegexStar (RegexPlus (Str2Reg "::"))) (RegexConcat (RegexStar (RegexPlus (Str2Reg ";;"))) (RegexConcat (RegexUnion (RegexUnion (Str2Reg "<<") (Str2Reg "===")) (RegexUnion (Str2Reg ">") (Str2Reg "?"))) (RegexConcat (RegexStar (RegexStar (Str2Reg "@@@"))) (RegexConcat (RegexStar (RegexStar (Str2Reg "[["))) (RegexConcat (RegexStar (RegexUnion (Str2Reg "\\\\") (Str2Reg "]]]"))) (RegexConcat (RegexPlus (RegexPlus (Str2Reg "^^"))) (RegexConcat (RegexPlus (RegexUnion (Str2Reg "__") (Str2Reg "`"))) (RegexConcat (RegexStar (RegexPlus (Str2Reg "{{{"))) (RegexConcat (RegexUnion (RegexStar (Str2Reg "||")) (RegexStar (Str2Reg "}"))) (RegexConcat (RegexStar (RegexStar (Str2Reg "~~~"))) (RegexConcat (RegexUnion (RegexStar (Str2Reg "0")) (RegexStar (Str2Reg "11"))) (RegexConcat (RegexUnion (RegexUnion (Str2Reg "22") (Str2Reg "333")) (RegexUnion (Str2Reg "4") (Str2Reg "5"))) (RegexConcat (RegexStar (RegexStar (Str2Reg "66"))) (RegexConcat (RegexUnion (RegexUnion (Str2Reg "777") (Str2Reg "888")) (RegexUnion (Str2Reg "9") (Str2Reg "aaa"))) (RegexConcat (RegexStar (RegexPlus (Str2Reg "bbb"))) (RegexConcat (RegexUnion (RegexPlus (Str2Reg "ccc")) (RegexPlus (Str2Reg "d"))) (RegexConcat (RegexStar (RegexUnion (Str2Reg "ee") (Str2Reg "f"))) (RegexConcat (RegexStar (RegexStar (Str2Reg "g"))) (RegexConcat (RegexUnion (RegexPlus (Str2Reg "hh")) (RegexPlus (Str2Reg "i"))) (RegexConcat (RegexStar (RegexStar (Str2Reg "jj"))) (RegexConcat (RegexUnion (RegexUnion (Str2Reg "k") (Str2Reg "lll")) (RegexUnion (Str2Reg "mm") (Str2Reg "nnn"))) (RegexConcat (RegexPlus (RegexStar (Str2Reg "o"))) (RegexConcat (RegexUnion (RegexUnion (Str2Reg "ppp") (Str2Reg "q")) (RegexUnion (Str2Reg "rr") (Str2Reg "sss"))) (RegexConcat (RegexUnion (RegexPlus (Str2Reg "ttt")) (RegexPlus (Str2Reg "uuu"))) (RegexConcat (RegexUnion (RegexPlus (Str2Reg "vv")) (RegexPlus (Str2Reg "w"))) (RegexConcat (RegexStar (RegexUnion (Str2Reg "xx") (Str2Reg "y"))) (RegexConcat (RegexUnion (RegexPlus (Str2Reg "zzz")) (RegexPlus (Str2Reg "A"))) (RegexConcat (RegexUnion (RegexPlus (Str2Reg "BB")) (RegexPlus (Str2Reg "CCC"))) (RegexConcat (RegexStar (RegexStar (Str2Reg "D"))) (RegexConcat (RegexPlus (RegexUnion (Str2Reg "E") (Str2Reg "FFF"))) (RegexConcat (RegexStar (RegexPlus (Str2Reg "G"))) (RegexConcat (RegexUnion (RegexUnion (Str2Reg "HHH") (Str2Reg "III")) (RegexUnion (Str2Reg "JJ") (Str2Reg "KKK"))) (RegexConcat (RegexPlus (RegexUnion (Str2Reg "LLL") (Str2Reg "M"))) (RegexConcat (RegexPlus (RegexUnion (Str2Reg "NNN") (Str2Reg "O"))) (RegexConcat (RegexPlus (RegexUnion (Str2Reg "PPP") (Str2Reg "Q"))) (RegexConcat (RegexPlus (RegexStar (Str2Reg "RRR"))) (RegexConcat (RegexUnion (RegexStar (Str2Reg "S")) (RegexStar (Str2Reg "T"))) (RegexConcat (RegexUnion (RegexStar (Str2Reg "UU")) (RegexStar (Str2Reg "VV"))) (RegexUnion (RegexPlus (Str2Reg "W")) (RegexPlus (Str2Reg "X"))))))))))))))))))))))))))))))))))))))))))))))))))))))))))))))))))))))))))))))))))))))))))
(assert (not (RegexIn var0 (RegexConcat (RegexPlus (RegexUnion (Str2Reg "0") (Str2Reg "11"))) (RegexConcat (RegexStar (RegexPlus (Str2Reg "2"))) (RegexConcat (RegexStar (RegexPlus (Str2Reg "333"))) (RegexConcat (RegexStar (RegexUnion (Str2Reg "444") (Str2Reg "5"))) (RegexConcat (RegexUnion (RegexStar (Str2Reg "6")) (RegexStar (Str2Reg "7"))) (RegexConcat (RegexStar (RegexStar (Str2Reg "888"))) (RegexConcat (RegexStar (RegexUnion (Str2Reg "9") (Str2Reg "a"))) (RegexConcat (RegexPlus (RegexPlus (Str2Reg "bb"))) (RegexConcat (RegexUnion (RegexUnion (Str2Reg "ccc") (Str2Reg "ddd")) (RegexUnion (Str2Reg "ee") (Str2Reg "ff"))) (RegexConcat (RegexStar (RegexStar (Str2Reg "gg"))) (RegexConcat (RegexStar (RegexUnion (Str2Reg "h") (Str2Reg "iii"))) (RegexConcat (RegexStar (RegexStar (Str2Reg "jj"))) (RegexConcat (RegexUnion (RegexUnion (Str2Reg "k") (Str2Reg "ll")) (RegexUnion (Str2Reg "mmm") (Str2Reg "n"))) (RegexConcat (RegexStar (RegexUnion (Str2Reg "o") (Str2Reg "p"))) (RegexConcat (RegexPlus (RegexUnion (Str2Reg "qqq") (Str2Reg "rr"))) (RegexConcat (RegexUnion (RegexStar (Str2Reg "sss")) (RegexStar (Str2Reg "t"))) (RegexConcat (RegexStar (RegexUnion (Str2Reg "u") (Str2Reg "v"))) (RegexConcat (RegexPlus (RegexUnion (Str2Reg "w") (Str2Reg "x"))) (RegexConcat (RegexPlus (RegexUnion (Str2Reg "yy") (Str2Reg "zzz"))) (RegexConcat (RegexUnion (RegexPlus (Str2Reg "AAA")) (RegexPlus (Str2Reg "B"))) (RegexConcat (RegexUnion (RegexPlus (Str2Reg "C")) (RegexPlus (Str2Reg "D"))) (RegexConcat (RegexPlus (RegexUnion (Str2Reg "EE") (Str2Reg "FFF"))) (RegexConcat (RegexPlus (RegexUnion (Str2Reg "GGG") (Str2Reg "H"))) (RegexConcat (RegexUnion (RegexUnion (Str2Reg "I") (Str2Reg "JJJ")) (RegexUnion (Str2Reg "K") (Str2Reg "LLL"))) (RegexConcat (RegexStar (RegexPlus (Str2Reg "MM"))) (RegexConcat (RegexStar (RegexPlus (Str2Reg "N"))) (RegexConcat (RegexUnion (RegexPlus (Str2Reg "O")) (RegexPlus (Str2Reg "PPP"))) (RegexConcat (RegexStar (RegexUnion (Str2Reg "QQ") (Str2Reg "RRR"))) (RegexConcat (RegexPlus (RegexStar (Str2Reg "SSS"))) (RegexConcat (RegexPlus (RegexPlus (Str2Reg "TT"))) (RegexConcat (RegexStar (RegexUnion (Str2Reg "U") (Str2Reg "VV"))) (RegexConcat (RegexStar (RegexStar (Str2Reg "WW"))) (RegexConcat (RegexUnion (RegexStar (Str2Reg "X")) (RegexStar (Str2Reg "Y"))) (RegexConcat (RegexPlus (RegexStar (Str2Reg "Z"))) (RegexConcat (RegexPlus (RegexPlus (Str2Reg "!!!"))) (RegexConcat (RegexPlus (RegexPlus (Str2Reg "\""))) (RegexConcat (RegexPlus (RegexStar (Str2Reg "###"))) (RegexConcat (RegexUnion (RegexUnion (Str2Reg "$$$") (Str2Reg "%")) (RegexUnion (Str2Reg "&&&") (Str2Reg "'''"))) (RegexConcat (RegexStar (RegexPlus (Str2Reg "(("))) (RegexConcat (RegexStar (RegexPlus (Str2Reg ")"))) (RegexConcat (RegexPlus (RegexUnion (Str2Reg "***") (Str2Reg "++"))) (RegexConcat (RegexPlus (RegexStar (Str2Reg ",,"))) (RegexConcat (RegexStar (RegexPlus (Str2Reg "--"))) (RegexConcat (RegexPlus (RegexUnion (Str2Reg "..") (Str2Reg "//"))) (RegexConcat (RegexUnion (RegexStar (Str2Reg ":::")) (RegexStar (Str2Reg ";;;"))) (RegexConcat (RegexPlus (RegexStar (Str2Reg "<<<"))) (RegexConcat (RegexPlus (RegexPlus (Str2Reg "==="))) (RegexConcat (RegexPlus (RegexUnion (Str2Reg ">>>") (Str2Reg "??"))) (RegexConcat (RegexPlus (RegexStar (Str2Reg "@@@"))) (RegexConcat (RegexStar (RegexStar (Str2Reg "[["))) (RegexConcat (RegexUnion (RegexStar (Str2Reg "\\\\")) (RegexStar (Str2Reg "]"))) (RegexConcat (RegexUnion (RegexPlus (Str2Reg "^")) (RegexPlus (Str2Reg "__"))) (RegexConcat (RegexUnion (RegexPlus (Str2Reg "``")) (RegexPlus (Str2Reg "{"))) (RegexConcat (RegexPlus (RegexPlus (Str2Reg "||"))) (RegexConcat (RegexStar (RegexUnion (Str2Reg "}}}") (Str2Reg "~~"))) (RegexConcat (RegexPlus (RegexPlus (Str2Reg "00"))) (RegexConcat (RegexStar (RegexPlus (Str2Reg "111"))) (RegexConcat (RegexUnion (RegexPlus (Str2Reg "2")) (RegexPlus (Str2Reg "3"))) (RegexConcat (RegexStar (RegexStar (Str2Reg "4"))) (RegexConcat (RegexStar (RegexUnion (Str2Reg "555") (Str2Reg "66"))) (RegexConcat (RegexPlus (RegexUnion (Str2Reg "77") (Str2Reg "8"))) (RegexConcat (RegexPlus (RegexUnion (Str2Reg "999") (Str2Reg "aa"))) (RegexConcat (RegexUnion (RegexPlus (Str2Reg "b")) (RegexPlus (Str2Reg "ccc"))) (RegexConcat (RegexPlus (RegexStar (Str2Reg "dd"))) (RegexConcat (RegexUnion (RegexPlus (Str2Reg "eee")) (RegexPlus (Str2Reg "f"))) (RegexConcat (RegexPlus (RegexUnion (Str2Reg "gg") (Str2Reg "hhh"))) (RegexConcat (RegexStar (RegexUnion (Str2Reg "iii") (Str2Reg "jj"))) (RegexConcat (RegexUnion (RegexPlus (Str2Reg "k")) (RegexPlus (Str2Reg "l"))) (RegexConcat (RegexStar (RegexPlus (Str2Reg "mmm"))) (RegexConcat (RegexUnion (RegexStar (Str2Reg "nn")) (RegexStar (Str2Reg "oo"))) (RegexConcat (RegexPlus (RegexStar (Str2Reg "p"))) (RegexConcat (RegexPlus (RegexUnion (Str2Reg "q") (Str2Reg "rrr"))) (RegexConcat (RegexUnion (RegexStar (Str2Reg "s")) (RegexStar (Str2Reg "ttt"))) (RegexConcat (RegexUnion (RegexUnion (Str2Reg "uuu") (Str2Reg "vvv")) (RegexUnion (Str2Reg "w") (Str2Reg "x"))) (RegexConcat (RegexStar (RegexPlus (Str2Reg "yyy"))) (RegexConcat (RegexStar (RegexUnion (Str2Reg "zz") (Str2Reg "AAA"))) (RegexConcat (RegexPlus (RegexUnion (Str2Reg "BB") (Str2Reg "CC"))) (RegexConcat (RegexStar (RegexStar (Str2Reg "DD"))) (RegexConcat (RegexStar (RegexPlus (Str2Reg "EEE"))) (RegexConcat (RegexUnion (RegexUnion (Str2Reg "FFF") (Str2Reg "GG")) (RegexUnion (Str2Reg "HHH") (Str2Reg "II"))) (RegexConcat (RegexPlus (RegexStar (Str2Reg "JJ"))) (RegexConcat (RegexStar (RegexPlus (Str2Reg "K"))) (RegexConcat (RegexPlus (RegexUnion (Str2Reg "LL") (Str2Reg "MM"))) (RegexConcat (RegexUnion (RegexPlus (Str2Reg "NNN")) (RegexPlus (Str2Reg "OO"))) (RegexConcat (RegexStar (RegexStar (Str2Reg "PPP"))) (RegexStar (RegexUnion (Str2Reg "QQ") (Str2Reg "RRR")))))))))))))))))))))))))))))))))))))))))))))))))))))))))))))))))))))))))))))))))))))))))))
(check-sat)